Maximize
  0 x0 + 40 x1 + 22 x2 + 0 x3 + 0 x4 + 24 x5 - 2 x6 + 0 x7 - x8 - 42 x9
   + 23 x10 + 0 x11 + 0 x12 + 0 x13 + 4 x14 + 0 x15 + 6 x16 - 28 x17
   + 44 x18 + 37 x19 + 0 x20 + 0 x21 + 22 x22 - 39 x23 - 48 x24 + 0 x25
   - 36 x26 - 41 x27 - 17 x28 - 32 x29 + 0 x30 - 45 x31 - 42 x32 - 16 x33
   + 0 x34 + 27 x35 + 26 x36 + 0 x37 - 47 x38 + 0 x39 + 48 x40 + 0 x41
   + 0 x42 + 5 x43 + 0 x44 + 29 x45 + 0 x46 + 0 x47 + 0 x48 - 10 x49
   + 27 x50 + 0 x51 + 0 x52 + 31 x53 + 0 x54 + 0 x55 + 0 x56 - 2 x57
   + 0 x58 + 0 x59 + 0 x60 + 34 x61 + 0 x62 + 0 x63 - 20 x64 + 0 x65
   + 0 x66 + 0 x67 + 0 x68 + 0 x69 + [ - 48 x0 ^2 - 30 x0 * x3 - 76 x0 * x7
   + 36 x0 * x10 + 22 x0 * x11 + 30 x0 * x12 + 36 x0 * x13 - 2 x0 * x16
   - 78 x0 * x17 - 12 x0 * x18 + 94 x0 * x19 - 2 x0 * x21 - 42 x0 * x23
   - 14 x0 * x25 + 40 x0 * x28 + 26 x0 * x29 + 14 x0 * x30 - 12 x0 * x31
   - 80 x0 * x32 + 10 x0 * x33 - 88 x0 * x37 + 2 x0 * x38 - 88 x0 * x40
   + 66 x0 * x41 + 50 x0 * x42 - 82 x0 * x47 + 40 x0 * x49 - 64 x0 * x52
   + 40 x0 * x53 + 90 x0 * x60 + 44 x0 * x61 + 60 x0 * x62 + 84 x0 * x65
   - 26 x0 * x66 + 54 x0 * x67 + 8 x0 * x68 + 66 x0 * x69 + 50 x1 * x2
   - 26 x1 * x3 + 86 x1 * x5 + 50 x1 * x6 + 14 x1 * x7 + 14 x1 * x10
   + 24 x1 * x12 + 38 x1 * x13 - 78 x1 * x14 - 42 x1 * x23 + 24 x1 * x24
   + 76 x1 * x25 - 88 x1 * x26 - 24 x1 * x28 - 74 x1 * x30 + 58 x1 * x31
   - 62 x1 * x33 - 26 x1 * x34 - 80 x1 * x38 + 58 x1 * x40 + 42 x1 * x44
   - 24 x1 * x47 - 4 x1 * x49 - 26 x1 * x51 + 18 x1 * x56 - 42 x1 * x57
   + 98 x1 * x58 - 46 x1 * x66 - 34 x1 * x67 + 44 x2 * x4 + 16 x2 * x9
   + 56 x2 * x11 + 70 x2 * x12 - 24 x2 * x13 - 74 x2 * x15 + 12 x2 * x16
   - 46 x2 * x19 - 98 x2 * x20 + 70 x2 * x22 + 24 x2 * x23 + 84 x2 * x24
   - 8 x2 * x26 + 36 x2 * x27 - 10 x2 * x28 + 2 x2 * x31 - 54 x2 * x32
   + 78 x2 * x34 + 48 x2 * x35 + 78 x2 * x36 - 16 x2 * x42 - 82 x2 * x43
   + 86 x2 * x44 - 62 x2 * x48 - 30 x2 * x52 + 74 x2 * x55 - 36 x2 * x56
   - 54 x2 * x58 + 54 x2 * x60 + 78 x2 * x62 - 92 x2 * x64 + 58 x2 * x65
   + 72 x2 * x67 + 33 x3 ^2 + 8 x3 * x4 - 44 x3 * x8 + 98 x3 * x14
   + 44 x3 * x17 + 20 x3 * x19 - 48 x3 * x20 + 22 x3 * x21 + 46 x3 * x22
   + 26 x3 * x23 + 10 x3 * x24 - 52 x3 * x25 + 20 x3 * x27 + 16 x3 * x29
   + 32 x3 * x31 - 22 x3 * x37 - 24 x3 * x39 - 24 x3 * x42 - 60 x3 * x44
   - 60 x3 * x45 - 76 x3 * x46 - 36 x3 * x47 - 78 x3 * x48 - 6 x3 * x50
   + 32 x3 * x53 + 84 x3 * x58 - 48 x3 * x59 + 8 x3 * x61 + 6 x3 * x62
   - 34 x3 * x63 - 76 x3 * x65 + 82 x3 * x68 + 40 x3 * x69 - 32 x4 * x5
   - 2 x4 * x8 + 88 x4 * x10 + 94 x4 * x11 + 4 x4 * x13 - 80 x4 * x14
   - 42 x4 * x15 + 4 x4 * x16 - 42 x4 * x18 - 14 x4 * x19 - 60 x4 * x20
   + 94 x4 * x26 + 10 x4 * x30 + 50 x4 * x31 + 74 x4 * x32 + 78 x4 * x34
   - 40 x4 * x35 - 74 x4 * x37 - 28 x4 * x38 + 16 x4 * x39 - 34 x4 * x40
   + 22 x4 * x43 + 30 x4 * x45 - 86 x4 * x46 - 68 x4 * x47 + 80 x4 * x49
   - 64 x4 * x52 - 44 x4 * x53 - 20 x4 * x54 + 30 x4 * x55 + 52 x4 * x56
   - 28 x4 * x57 + 80 x4 * x58 + 70 x4 * x59 - 36 x4 * x60 + 74 x4 * x61
   + 76 x4 * x64 + 86 x4 * x65 + 48 x4 * x69 + 18 x5 ^2 - 56 x5 * x6
   - 64 x5 * x7 + 46 x5 * x8 - 38 x5 * x9 + 18 x5 * x10 - 60 x5 * x13
   + 22 x5 * x14 + 28 x5 * x15 + 8 x5 * x16 - 82 x5 * x19 - 72 x5 * x21
   + 68 x5 * x23 - 72 x5 * x24 - 58 x5 * x25 + 46 x5 * x29 - 80 x5 * x30
   - 88 x5 * x31 + 80 x5 * x32 - 78 x5 * x33 - 48 x5 * x37 - 90 x5 * x38
   + 64 x5 * x39 - 14 x5 * x41 - 60 x5 * x42 + 32 x5 * x46 + 14 x5 * x47
   + 64 x5 * x49 + 54 x5 * x50 + 12 x5 * x51 - 44 x5 * x52 - 98 x5 * x54
   + 70 x5 * x55 + 84 x5 * x56 - 46 x5 * x57 + 82 x5 * x61 - 52 x5 * x66
   + 66 x5 * x69 - 4 x6 ^2 - 88 x6 * x9 + 48 x6 * x11 - 84 x6 * x14
   - 74 x6 * x16 - 36 x6 * x17 - 2 x6 * x18 + 62 x6 * x19 + 96 x6 * x21
   + 62 x6 * x22 + 22 x6 * x24 - 68 x6 * x28 - 8 x6 * x29 - 26 x6 * x33
   + 16 x6 * x35 - 78 x6 * x38 - 76 x6 * x39 - 94 x6 * x40 - 46 x6 * x41
   - 90 x6 * x42 - 28 x6 * x45 - 60 x6 * x49 - 76 x6 * x50 - 68 x6 * x53
   + 14 x6 * x55 + 32 x6 * x59 - 24 x6 * x60 - 74 x7 * x8 + 72 x7 * x14
   + 58 x7 * x17 + 88 x7 * x20 - 32 x7 * x23 + 32 x7 * x24 + 4 x7 * x26
   - 56 x7 * x27 - 76 x7 * x28 - 52 x7 * x29 - 70 x7 * x30 + 84 x7 * x31
   + 88 x7 * x34 - 70 x7 * x37 + 88 x7 * x39 + 22 x7 * x41 - 8 x7 * x42
   + 34 x7 * x43 + 86 x7 * x44 + 14 x7 * x48 - 6 x7 * x49 - 72 x7 * x50
   - 54 x7 * x51 - 10 x7 * x59 - 44 x7 * x60 - 52 x7 * x62 - 38 x7 * x64
   + 60 x7 * x66 - 36 x7 * x67 + 92 x7 * x68 + 38 x7 * x69 - 94 x8 * x9
   + 8 x8 * x10 - 74 x8 * x13 + 34 x8 * x15 - 88 x8 * x16 + 66 x8 * x18
   - 84 x8 * x21 - 24 x8 * x22 - 86 x8 * x23 - 28 x8 * x25 + 86 x8 * x26
   + 84 x8 * x27 - 18 x8 * x30 + 62 x8 * x32 + 52 x8 * x33 - 40 x8 * x34
   + 66 x8 * x36 - 86 x8 * x37 - 92 x8 * x42 - 98 x8 * x43 + 36 x8 * x45
   - 92 x8 * x49 + 16 x8 * x50 + 28 x8 * x51 + 68 x8 * x54 + 10 x8 * x56
   - 6 x8 * x57 + 6 x8 * x59 + 42 x8 * x60 - 66 x8 * x61 + 60 x8 * x62
   + 80 x8 * x63 - 8 x8 * x64 + 74 x8 * x65 - 14 x8 * x66 - 96 x9 * x10
   + 76 x9 * x13 - 22 x9 * x15 - 86 x9 * x16 + 50 x9 * x19 - 52 x9 * x21
   + 4 x9 * x23 + 30 x9 * x25 - 32 x9 * x29 + 38 x9 * x30 - 40 x9 * x31
   + 68 x9 * x32 + 20 x9 * x37 - 58 x9 * x39 - 36 x9 * x42 - 6 x9 * x44
   - 78 x9 * x45 - 26 x9 * x47 - 12 x9 * x48 - 66 x9 * x49 + 96 x9 * x50
   - 84 x9 * x51 - 64 x9 * x54 - 94 x9 * x60 - 36 x9 * x62 + 24 x9 * x63
   + 33 x10 ^2 - 12 x10 * x12 + 66 x10 * x14 - 14 x10 * x16 + 28 x10 * x19
   + 42 x10 * x20 + 44 x10 * x22 - 84 x10 * x25 + 32 x10 * x26
   - 62 x10 * x29 - 10 x10 * x31 + 72 x10 * x32 - 96 x10 * x34
   - 86 x10 * x41 + 70 x10 * x42 + 22 x10 * x45 - 88 x10 * x46
   + 30 x10 * x47 - 66 x10 * x49 + 88 x10 * x50 + 38 x10 * x53
   + 26 x10 * x55 + 72 x10 * x57 - 78 x10 * x58 + 32 x10 * x59
   + 18 x10 * x60 + 34 x10 * x62 + 14 x10 * x63 + 96 x10 * x64
   + 14 x10 * x66 + 30 x10 * x69 + 3 x11 ^2 + 38 x11 * x16 - 58 x11 * x17
   + 10 x11 * x19 + 4 x11 * x22 - 14 x11 * x31 + 68 x11 * x32
   + 68 x11 * x35 - 24 x11 * x39 - 32 x11 * x40 + 40 x11 * x41
   - 68 x11 * x42 + 96 x11 * x44 - 78 x11 * x45 - 22 x11 * x46
   - 52 x11 * x47 + 56 x11 * x49 + 52 x11 * x50 + 58 x11 * x51
   - 60 x11 * x54 + 28 x11 * x55 - 60 x11 * x56 - 10 x11 * x58
   + 98 x11 * x61 + 4 x11 * x64 + 60 x11 * x65 + 20 x11 * x67
   + 12 x12 * x13 + 70 x12 * x14 + 60 x12 * x15 - 92 x12 * x16
   + 36 x12 * x17 + 88 x12 * x20 + 64 x12 * x21 + 80 x12 * x23
   + 32 x12 * x26 + 32 x12 * x28 + 42 x12 * x29 + 38 x12 * x34
   - 68 x12 * x37 - 30 x12 * x43 - 12 x12 * x44 - 6 x12 * x45 + 8 x12 * x47
   + 88 x12 * x49 + 40 x12 * x53 + 86 x12 * x56 - 84 x12 * x58
   + 94 x12 * x59 + 34 x12 * x60 - 76 x12 * x61 - 84 x12 * x62
   - 20 x12 * x66 - 78 x12 * x67 - 2 x13 * x14 - 16 x13 * x15
   - 64 x13 * x16 + 34 x13 * x18 - 14 x13 * x19 + 58 x13 * x21
   - 78 x13 * x22 + 60 x13 * x23 - 90 x13 * x25 + 6 x13 * x28
   - 74 x13 * x29 + 4 x13 * x30 + 6 x13 * x31 + 60 x13 * x33 + 22 x13 * x34
   - 4 x13 * x35 - 66 x13 * x36 - 44 x13 * x37 + 32 x13 * x38
   - 82 x13 * x43 + 28 x13 * x46 - 88 x13 * x49 - 74 x13 * x52
   + 88 x13 * x56 + 72 x13 * x58 + 50 x13 * x59 - 8 x13 * x62
   - 40 x13 * x63 + 90 x13 * x64 - 70 x13 * x66 + 56 x13 * x68
   + 94 x13 * x69 - 68 x14 * x15 - 20 x14 * x16 + 10 x14 * x17
   + 22 x14 * x20 + 76 x14 * x21 + 94 x14 * x24 + 98 x14 * x26
   + 76 x14 * x30 + 72 x14 * x33 - 72 x14 * x37 - 98 x14 * x39
   + 8 x14 * x41 - 34 x14 * x43 - 62 x14 * x46 - 42 x14 * x49 - 2 x14 * x53
   - 88 x14 * x55 + 86 x14 * x56 + 88 x14 * x57 + 82 x14 * x58
   - 34 x14 * x60 + 34 x14 * x62 - 98 x14 * x66 + 74 x14 * x67
   + 76 x14 * x68 - 30 x14 * x69 + 20 x15 * x17 - 4 x15 * x18
   + 66 x15 * x19 + 42 x15 * x20 + 2 x15 * x24 - 76 x15 * x30
   - 10 x15 * x31 + 30 x15 * x32 - 38 x15 * x33 - 8 x15 * x34
   - 74 x15 * x37 + 74 x15 * x38 + 40 x15 * x40 - 32 x15 * x41
   - 40 x15 * x42 - 54 x15 * x43 - 56 x15 * x45 + 96 x15 * x46
   + 2 x15 * x49 + 54 x15 * x55 - 98 x15 * x57 + 34 x15 * x59
   + 90 x15 * x60 - 44 x15 * x61 + 38 x15 * x64 - 16 x15 * x66
   + 90 x16 * x17 + 52 x16 * x18 + 82 x16 * x22 + 76 x16 * x23
   - 34 x16 * x26 + 14 x16 * x28 + 40 x16 * x34 - 44 x16 * x35
   + 2 x16 * x36 + 82 x16 * x38 + 2 x16 * x43 + 6 x16 * x44 + 62 x16 * x46
   - 8 x16 * x47 + 32 x16 * x48 - 46 x16 * x49 - 34 x16 * x53
   + 38 x16 * x54 - 18 x16 * x55 + 20 x16 * x56 - 4 x16 * x58
   - 26 x16 * x60 - 68 x16 * x61 + 58 x16 * x63 + 4 x16 * x66
   - 78 x16 * x67 - 33 x17 ^2 - 38 x17 * x19 + 70 x17 * x22 - 76 x17 * x23
   - 68 x17 * x24 - 28 x17 * x25 + 36 x17 * x27 + 58 x17 * x30
   - 72 x17 * x32 - 12 x17 * x35 + 20 x17 * x36 + 58 x17 * x37
   - 64 x17 * x38 - 24 x17 * x39 + 58 x17 * x40 + 22 x17 * x42
   + 86 x17 * x43 + 80 x17 * x44 - 68 x17 * x45 + 80 x17 * x46
   + 74 x17 * x49 - 32 x17 * x51 + 56 x17 * x52 - 66 x17 * x55
   - 46 x17 * x56 + 6 x17 * x58 - 20 x17 * x59 - 48 x17 * x62
   - 28 x17 * x63 - 90 x17 * x68 + 92 x18 * x19 - 62 x18 * x20
   + 18 x18 * x21 - 58 x18 * x22 - 70 x18 * x26 - 72 x18 * x27
   - 46 x18 * x29 + 32 x18 * x31 - 58 x18 * x32 + 56 x18 * x33
   - 80 x18 * x35 + 64 x18 * x36 + 76 x18 * x37 - 4 x18 * x39
   - 78 x18 * x44 - 42 x18 * x45 - 96 x18 * x48 + 54 x18 * x49
   + 44 x18 * x51 + 98 x18 * x53 - 2 x18 * x54 - 46 x18 * x56
   - 16 x18 * x58 - 36 x18 * x61 + 46 x18 * x62 - 28 x18 * x64
   - 4 x18 * x65 - 68 x18 * x66 + 98 x18 * x68 + 10 x19 * x21
   + 70 x19 * x31 - 62 x19 * x32 - 62 x19 * x36 + 16 x19 * x37
   - 74 x19 * x42 + 80 x19 * x43 + 62 x19 * x48 + 88 x19 * x49
   + 46 x19 * x51 - 50 x19 * x55 - 92 x19 * x59 - 18 x19 * x66
   - 54 x19 * x69 - 16 x20 * x22 + 48 x20 * x25 - 50 x20 * x26
   + 36 x20 * x27 + 46 x20 * x31 - 36 x20 * x34 + 78 x20 * x35
   - 48 x20 * x36 - 82 x20 * x40 - 24 x20 * x43 - 60 x20 * x44
   - 66 x20 * x45 - 12 x20 * x46 - 94 x20 * x56 - 40 x20 * x59
   - 64 x20 * x60 + 84 x20 * x63 + 14 x20 * x67 - 18 x20 * x68
   + 60 x21 * x23 - 8 x21 * x25 + 38 x21 * x28 + 30 x21 * x30
   + 64 x21 * x32 - 24 x21 * x34 + 84 x21 * x35 + 32 x21 * x38
   + 66 x21 * x40 + 20 x21 * x41 + 20 x21 * x42 - 10 x21 * x44
   - 28 x21 * x46 + 92 x21 * x49 + 78 x21 * x51 + 12 x21 * x52
   - 22 x21 * x54 - 98 x21 * x55 + 26 x21 * x56 + 80 x21 * x57
   - 62 x21 * x58 + 98 x21 * x63 + 20 x21 * x64 - 88 x21 * x66
   - 20 x22 * x23 + 54 x22 * x25 + 34 x22 * x26 + 60 x22 * x28
   + 44 x22 * x32 + 54 x22 * x34 - 48 x22 * x35 + 50 x22 * x36
   + 40 x22 * x37 - 38 x22 * x38 + 72 x22 * x39 + 92 x22 * x50
   + 52 x22 * x51 - 24 x22 * x54 + 94 x22 * x56 + 8 x22 * x60
   + 38 x22 * x63 - 86 x22 * x64 + 46 x22 * x65 + 48 x23 * x25
   - 2 x23 * x26 + 96 x23 * x27 + 30 x23 * x29 + 36 x23 * x32
   + 34 x23 * x39 + 62 x23 * x42 + 72 x23 * x43 + 96 x23 * x45
   - 52 x23 * x47 + 82 x23 * x53 + 12 x23 * x55 + 50 x23 * x56
   + 50 x23 * x57 + 80 x23 * x64 - 20 x23 * x65 + 30 x23 * x67
   - 56 x23 * x69 - 44 x24 * x26 + 60 x24 * x27 - 12 x24 * x37
   + 38 x24 * x38 + 42 x24 * x39 - 80 x24 * x41 - 66 x24 * x45
   + 30 x24 * x46 + 80 x24 * x47 + 6 x24 * x49 - 22 x24 * x51
   + 10 x24 * x55 + 76 x24 * x56 - 32 x24 * x61 + 56 x24 * x62
   - 14 x24 * x66 - 46 x24 * x67 + 68 x24 * x68 - 58 x24 * x69 - 35 x25 ^2
   - 22 x25 * x31 - 58 x25 * x32 + 52 x25 * x34 + 22 x25 * x35
   - 78 x25 * x40 - 28 x25 * x41 + 30 x25 * x43 - 96 x25 * x45
   + 36 x25 * x46 - 30 x25 * x47 - 90 x25 * x49 - 18 x25 * x50
   + 16 x25 * x51 - 24 x25 * x54 + 28 x25 * x56 - 26 x25 * x57
   + 26 x25 * x58 - 24 x25 * x64 - 86 x25 * x67 - 2 x25 * x68
   - 28 x25 * x69 + 60 x26 * x27 + 42 x26 * x28 - 18 x26 * x29
   - 72 x26 * x31 + 94 x26 * x33 + 38 x26 * x35 - 28 x26 * x36
   + 86 x26 * x38 - 14 x26 * x41 - 90 x26 * x42 - 98 x26 * x43
   - 32 x26 * x44 - 32 x26 * x45 + 12 x26 * x47 - 14 x26 * x49
   + 90 x26 * x50 + 92 x26 * x52 - 70 x26 * x55 + 96 x26 * x58
   - 10 x26 * x61 - 68 x26 * x62 - 20 x26 * x66 - 14 x26 * x67
   - 88 x27 * x28 - 58 x27 * x29 - 62 x27 * x31 - 68 x27 * x32
   - 82 x27 * x33 + 52 x27 * x34 - 52 x27 * x35 + 2 x27 * x37
   + 86 x27 * x41 + 62 x27 * x43 - 96 x27 * x45 + 34 x27 * x48
   + 92 x27 * x53 + 36 x27 * x54 - 16 x27 * x58 + 94 x27 * x60
   - 40 x27 * x61 + 36 x27 * x62 - 14 x27 * x63 + 76 x27 * x66 - 32 x28 ^2
   - 88 x28 * x31 + 18 x28 * x35 + 28 x28 * x36 + 68 x28 * x38
   + 44 x28 * x39 + 76 x28 * x40 - 42 x28 * x41 - 36 x28 * x43
   + 72 x28 * x44 + 72 x28 * x45 - 40 x28 * x47 - 14 x28 * x51
   - 98 x28 * x54 - 78 x28 * x55 + 50 x28 * x57 - 86 x28 * x58
   - 4 x28 * x61 + 44 x28 * x63 + 20 x28 * x64 - 24 x28 * x66
   - 14 x28 * x68 - 46 x28 * x69 - 28 x29 * x31 + 14 x29 * x33
   - 34 x29 * x35 - 24 x29 * x36 - 42 x29 * x38 - 26 x29 * x42
   + 76 x29 * x43 + 18 x29 * x46 + 68 x29 * x47 + 4 x29 * x51
   - 78 x29 * x53 + 8 x29 * x57 - 64 x29 * x63 + 66 x29 * x65
   - 76 x29 * x68 + 16 x29 * x69 + 2 x30 * x31 - 78 x30 * x37
   + 64 x30 * x40 - 12 x30 * x41 + 84 x30 * x44 + 46 x30 * x47
   + 58 x30 * x53 - 92 x30 * x55 - 86 x30 * x59 + 28 x30 * x61
   + 28 x30 * x62 - 68 x30 * x68 - 11 x31 ^2 - 90 x31 * x33 - 72 x31 * x34
   + 20 x31 * x36 + 96 x31 * x38 + 56 x31 * x39 + 20 x31 * x42
   - 30 x31 * x44 + 20 x31 * x45 + 14 x31 * x46 + 68 x31 * x49
   - 42 x31 * x50 - 70 x31 * x52 + 50 x31 * x53 - 44 x31 * x55
   - 36 x31 * x56 + 70 x31 * x57 - 8 x31 * x61 + 6 x31 * x64 + 16 x31 * x66
   - 86 x31 * x67 - 36 x31 * x68 - 20 x32 ^2 + 80 x32 * x33 + 44 x32 * x37
   - 52 x32 * x38 - 54 x32 * x39 + 50 x32 * x40 + 66 x32 * x41
   + 56 x32 * x42 - 92 x32 * x43 - 12 x32 * x44 + 78 x32 * x46
   - 28 x32 * x47 - 76 x32 * x48 + 50 x32 * x50 + 4 x32 * x52 - 8 x32 * x54
   + 60 x32 * x58 - 72 x32 * x59 - 78 x32 * x61 + 6 x32 * x62
   + 94 x32 * x64 + 46 x32 * x65 + 94 x32 * x66 - 16 x33 ^2 - 76 x33 * x34
   + 74 x33 * x39 - 26 x33 * x40 + 26 x33 * x41 + 26 x33 * x42
   - 82 x33 * x45 + 84 x33 * x48 - 20 x33 * x50 + 14 x33 * x52
   + 94 x33 * x53 + 70 x33 * x55 + 2 x33 * x56 - 28 x33 * x57 + 8 x33 * x58
   - 82 x33 * x59 - 38 x33 * x61 - 56 x33 * x62 + 44 x33 * x66
   + 62 x34 * x35 - 62 x34 * x37 + 22 x34 * x38 - 20 x34 * x44
   + 82 x34 * x45 + 60 x34 * x46 + 8 x34 * x47 + 2 x34 * x48 + 20 x34 * x50
   - 76 x34 * x56 + 78 x34 * x57 - 50 x34 * x60 + 64 x34 * x61
   - 60 x34 * x64 - 68 x34 * x65 - 48 x34 * x66 + 98 x34 * x67
   + 42 x35 * x36 + 20 x35 * x37 + 46 x35 * x39 + 56 x35 * x40
   + 24 x35 * x43 + 88 x35 * x44 - 94 x35 * x46 - 50 x35 * x54
   + 56 x35 * x55 + 4 x35 * x62 - 64 x35 * x64 + 72 x35 * x66
   - 10 x35 * x69 - 20 x36 ^2 + 96 x36 * x37 + 36 x36 * x39 - 22 x36 * x42
   - 46 x36 * x46 + 98 x36 * x47 + 48 x36 * x48 - 42 x36 * x50
   + 84 x36 * x51 - 84 x36 * x52 + 2 x36 * x56 - 30 x36 * x57
   + 88 x36 * x60 - 32 x36 * x64 + 6 x36 * x65 - 26 x36 * x66
   + 90 x36 * x68 - 90 x36 * x69 - 37 x37 ^2 + 24 x37 * x39 - 84 x37 * x40
   + 96 x37 * x41 + 62 x37 * x43 + 58 x37 * x48 - 58 x37 * x51
   + 46 x37 * x52 - 40 x37 * x53 + 64 x37 * x54 - 48 x37 * x55
   + 46 x37 * x61 - 78 x37 * x62 - 36 x37 * x63 - 14 x37 * x67
   + 30 x37 * x68 + 28 x38 ^2 + 40 x38 * x39 - 78 x38 * x40 + 56 x38 * x44
   - 60 x38 * x46 + 32 x38 * x50 - 4 x38 * x57 + 94 x38 * x59 + 6 x38 * x60
   + 2 x38 * x64 - 50 x38 * x66 - 4 x38 * x69 - 4 x39 ^2 + 42 x39 * x41
   - 72 x39 * x43 - 86 x39 * x45 + 96 x39 * x46 - 82 x39 * x47
   + 88 x39 * x48 + 52 x39 * x50 + 56 x39 * x51 - 46 x39 * x55
   - 86 x39 * x58 + 52 x39 * x59 + 18 x39 * x68 + 96 x40 * x43
   + 50 x40 * x45 + 62 x40 * x46 - 52 x40 * x47 - 14 x40 * x49
   + 18 x40 * x52 + 50 x40 * x53 + 92 x40 * x54 + 36 x40 * x55
   + 38 x40 * x56 - 62 x40 * x57 - 58 x40 * x58 - 76 x40 * x59
   + 78 x40 * x60 + 24 x40 * x61 + 42 x40 * x62 - 58 x40 * x63
   - 86 x40 * x65 - 26 x40 * x66 + 40 x41 * x42 - 52 x41 * x43
   + 26 x41 * x45 - 50 x41 * x46 - 22 x41 * x48 + 84 x41 * x49
   + 32 x41 * x51 - 28 x41 * x55 - 60 x41 * x56 + 56 x41 * x57
   + 70 x41 * x60 - 20 x41 * x61 + 16 x41 * x62 - 74 x41 * x66
   - 74 x41 * x67 - 74 x41 * x68 - 16 x42 * x43 + 2 x42 * x46
   + 74 x42 * x47 - 48 x42 * x52 + 30 x42 * x53 - 96 x42 * x54
   + 82 x42 * x59 + 96 x42 * x61 + 98 x42 * x62 - 6 x42 * x63
   - 26 x42 * x64 - 20 x42 * x66 + 18 x42 * x68 - 18 x42 * x69
   + 56 x43 * x47 - 80 x43 * x50 - 40 x43 * x53 + 70 x43 * x54
   - 36 x43 * x55 + 36 x43 * x57 - 14 x43 * x58 + 88 x43 * x60
   + 66 x43 * x64 + 46 x43 * x65 + 52 x43 * x66 - 86 x43 * x69
   + 56 x44 * x47 - 44 x44 * x49 - 36 x44 * x55 - 18 x44 * x58
   - 74 x44 * x60 + 90 x44 * x65 + 20 x44 * x67 + 48 x44 * x68
   - 94 x45 * x47 - 30 x45 * x52 + 54 x45 * x53 + 26 x45 * x55
   - 40 x45 * x57 - 10 x45 * x60 - 64 x45 * x61 - 4 x45 * x63
   - 78 x45 * x65 - 24 x45 * x69 + 26 x46 ^2 - 74 x46 * x47 + 16 x46 * x48
   - 30 x46 * x49 + 98 x46 * x50 - 88 x46 * x52 - 86 x46 * x53
   + 2 x46 * x54 - 92 x46 * x58 + 56 x46 * x60 + 78 x46 * x61
   + 36 x46 * x63 + 74 x46 * x65 - 82 x46 * x66 + 56 x46 * x68
   - 86 x46 * x69 + 8 x47 ^2 + 8 x47 * x48 + 66 x47 * x53 - 46 x47 * x56
   - 78 x47 * x61 - 38 x47 * x62 - 12 x47 * x64 - 24 x47 * x66
   - 86 x47 * x67 + 19 x48 ^2 + 26 x48 * x49 - 32 x48 * x53 + 14 x48 * x54
   - 46 x48 * x56 - 14 x48 * x60 + 22 x48 * x62 + 72 x48 * x63
   + 70 x48 * x69 - 3 x49 ^2 - 6 x49 * x51 - 64 x49 * x54 - 34 x49 * x56
   - 28 x49 * x59 + 58 x49 * x60 + 62 x49 * x62 + 46 x49 * x64
   + 4 x49 * x65 - 14 x49 * x66 + 74 x49 * x68 - 92 x50 * x52
   + 90 x50 * x53 + 66 x50 * x54 + 16 x50 * x56 - 44 x50 * x59
   - 10 x50 * x60 - 60 x50 * x61 - 16 x50 * x67 + 10 x50 * x68
   + 78 x50 * x69 - 27 x51 ^2 - 70 x51 * x52 - 36 x51 * x53 - 58 x51 * x55
   + 84 x51 * x56 + 90 x51 * x57 - 10 x51 * x58 + 26 x51 * x59
   + 42 x51 * x62 + 78 x51 * x64 - 48 x51 * x65 - 76 x51 * x67 + 44 x52 ^2
   - 18 x52 * x54 + 58 x52 * x58 - 74 x52 * x60 + 64 x52 * x62
   - 52 x52 * x64 - 42 x52 * x65 + 36 x52 * x68 + 37 x53 ^2 - 26 x53 * x54
   + 60 x53 * x55 + 98 x53 * x62 + 22 x53 * x64 - 66 x53 * x65
   - 6 x53 * x66 + 34 x53 * x69 - 40 x54 * x55 - 46 x54 * x61
   + 98 x54 * x62 + 66 x54 * x64 + 90 x54 * x65 + 58 x54 * x67
   + 26 x54 * x69 + 36 x55 * x56 - 50 x55 * x57 - 96 x55 * x59
   + 26 x55 * x61 + 84 x55 * x62 + 18 x55 * x66 - 76 x55 * x67
   - 78 x55 * x68 + 10 x56 * x57 - 64 x56 * x58 - 82 x56 * x63
   - 52 x56 * x65 - 42 x56 * x69 + 12 x57 ^2 - 2 x57 * x58 + 94 x57 * x59
   + 10 x57 * x61 - 92 x57 * x64 + 74 x57 * x65 - 90 x57 * x66
   - 4 x57 * x67 + 44 x58 ^2 - 66 x58 * x61 - 62 x58 * x63 - 72 x58 * x64
   - 84 x58 * x67 - 66 x58 * x69 + 20 x59 ^2 + 78 x59 * x63 + 48 x59 * x64
   - 78 x59 * x67 - 39 x60 ^2 - 70 x60 * x61 + 12 x60 * x63 - 30 x60 * x66
   + 64 x60 * x68 - 78 x60 * x69 - 39 x61 ^2 - 16 x61 * x62 - 22 x61 * x63
   - 2 x61 * x64 + 46 x61 * x68 + 4 x62 * x64 - 36 x62 * x65 - 42 x62 * x68
   + 60 x62 * x69 + 43 x63 ^2 + 30 x63 * x69 + 26 x64 * x67 - 60 x64 * x69
   + 2 x65 ^2 + 50 x65 * x66 + 28 x65 * x67 - 12 x65 * x68 + 70 x66 * x69
   + 20 x67 ^2 + 94 x67 * x68 - 70 x67 * x69 - 17 x68 ^2 ] / 2 
Subject To
Bounds
 x0 <= 1
 x1 <= 1
 x2 <= 1
 x3 <= 1
 x4 <= 1
 x5 <= 1
 x6 <= 1
 x7 <= 1
 x8 <= 1
 x9 <= 1
 x10 <= 1
 x11 <= 1
 x12 <= 1
 x13 <= 1
 x14 <= 1
 x15 <= 1
 x16 <= 1
 x17 <= 1
 x18 <= 1
 x19 <= 1
 x20 <= 1
 x21 <= 1
 x22 <= 1
 x23 <= 1
 x24 <= 1
 x25 <= 1
 x26 <= 1
 x27 <= 1
 x28 <= 1
 x29 <= 1
 x30 <= 1
 x31 <= 1
 x32 <= 1
 x33 <= 1
 x34 <= 1
 x35 <= 1
 x36 <= 1
 x37 <= 1
 x38 <= 1
 x39 <= 1
 x40 <= 1
 x41 <= 1
 x42 <= 1
 x43 <= 1
 x44 <= 1
 x45 <= 1
 x46 <= 1
 x47 <= 1
 x48 <= 1
 x49 <= 1
 x50 <= 1
 x51 <= 1
 x52 <= 1
 x53 <= 1
 x54 <= 1
 x55 <= 1
 x56 <= 1
 x57 <= 1
 x58 <= 1
 x59 <= 1
 x60 <= 1
 x61 <= 1
 x62 <= 1
 x63 <= 1
 x64 <= 1
 x65 <= 1
 x66 <= 1
 x67 <= 1
 x68 <= 1
 x69 <= 1
End
